Gurobi Optimizer version 9.1.2 build v9.1.2rc0 (linux64)
Thread count: 36 physical cores, 72 logical processors, using up to 32 threads
Optimize a model with 12 rows, 57 columns and 590 nonzeros
Model fingerprint: 0xf32eec78
Model has 47 quadratic constraints
Coefficient statistics:
  Matrix range     [2e-05, 3e+00]
  QMatrix range    [1e+00, 1e+00]
  QLMatrix range   [1e+00, 1e+00]
  Objective range  [8e-03, 7e-01]
  Bounds range     [1e+00, 1e+00]
  RHS range        [1e+00, 1e+00]
Presolve removed 9 rows and 0 columns

Continuous model is non-convex -- solving as a MIP.

Presolve removed 9 rows and 0 columns
Presolve time: 0.00s
Presolved: 189 rows, 57 columns, 443 nonzeros
Presolved model has 47 bilinear constraint(s)
Variable types: 57 continuous, 0 integer (0 binary)

Root relaxation: objective -1.743721e+00, 44 iterations, 0.00 seconds

    Nodes    |    Current Node    |     Objective Bounds      |     Work
 Expl Unexpl |  Obj  Depth IntInf | Incumbent    BestBd   Gap | It/Node Time

     0     0   -1.74372    0   38          -   -1.74372      -     -    0s
H    0     0                       0.6147548   -1.74372   384%     -    0s
     0     0   -1.64739    0    1    0.61475   -1.64739   368%     -    0s
H    0     0                      -1.6450460   -1.64739  0.14%     -    0s
     0     0     cutoff    0        -1.64505   -1.64505  0.00%     -    0s

Cutting planes:
  RLT: 25
  BQP: 3

Explored 1 nodes (76 simplex iterations) in 0.01 seconds
Thread count was 32 (of 72 available processors)

Solution count 2: -1.64505 0.614755 
No other solutions better than -1.64505

Optimal solution found (tolerance 1.00e-04)
Best objective -1.645045978473e+00, best bound -1.645045978473e+00, gap 0.0000%

User-callback calls 78, time in user-callback 0.00 sec
Gurobi Optimizer version 9.1.2 build v9.1.2rc0 (linux64)
Thread count: 36 physical cores, 72 logical processors, using up to 32 threads
Optimize a model with 24 rows, 120 columns and 2480 nonzeros
Model fingerprint: 0xb65decaf
Model has 100 quadratic constraints
Coefficient statistics:
  Matrix range     [8e-06, 4e+00]
  QMatrix range    [1e+00, 1e+00]
  QLMatrix range   [1e+00, 1e+00]
  Objective range  [4e-03, 1e+00]
  Bounds range     [1e+00, 1e+00]
  RHS range        [1e+00, 1e+00]
Presolve removed 18 rows and 0 columns

Continuous model is non-convex -- solving as a MIP.

Presolve removed 18 rows and 0 columns
Presolve time: 0.00s
Presolved: 406 rows, 120 columns, 1113 nonzeros
Presolved model has 100 bilinear constraint(s)
Variable types: 120 continuous, 0 integer (0 binary)

Root relaxation: objective -6.179579e+00, 149 iterations, 0.00 seconds

    Nodes    |    Current Node    |     Objective Bounds      |     Work
 Expl Unexpl |  Obj  Depth IntInf | Incumbent    BestBd   Gap | It/Node Time

     0     0   -6.17958    0   93          -   -6.17958      -     -    0s
H    0     0                       1.2928945   -6.17958   578%     -    0s
     0     0   -4.50233    0  100    1.29289   -4.50233   448%     -    0s
H    0     0                      -0.5071718   -4.50233   788%     -    0s
     0     0   -4.49937    0  100   -0.50717   -4.49937   787%     -    0s
     0     0   -4.05747    0   90   -0.50717   -4.05747   700%     -    0s
     0     0   -4.02035    0  100   -0.50717   -4.02035   693%     -    0s
     0     0   -3.87503    0  100   -0.50717   -3.87503   664%     -    0s
H    0     0                      -0.8781929   -3.87503   341%     -    0s
     0     0   -3.84346    0  100   -0.87819   -3.84346   338%     -    0s
     0     0   -3.78498    0   77   -0.87819   -3.78498   331%     -    0s
     0     0   -3.77937    0  100   -0.87819   -3.77937   330%     -    0s
     0     0   -3.76572    0  100   -0.87819   -3.76572   329%     -    0s
H    0     0                      -0.9110339   -3.76572   313%     -    0s
     0     0   -3.76568    0  100   -0.91103   -3.76568   313%     -    0s
     0     0   -3.76434    0  100   -0.91103   -3.76434   313%     -    0s
H    0     0                      -0.9729781   -3.76434   287%     -    0s
     0     0   -3.76389    0  100   -0.97298   -3.76389   287%     -    0s
     0     0   -3.76184    0  100   -0.97298   -3.76184   287%     -    0s
H    0     0                      -2.2826976   -3.76184  64.8%     -    0s
H    0     0                      -2.6492426   -3.76184  42.0%     -    0s
H    0     0                      -2.6686517   -3.76184  41.0%     -    0s
     0     2   -3.76184    0  100   -2.66865   -3.76184  41.0%     -    0s
* 1037   814              24      -2.6687741   -3.36916  26.2%  25.8    0s
* 1039   814              25      -2.6692464   -3.36916  26.2%  25.8    0s
* 1144  1014              34      -3.0511442   -3.36916  10.4%  24.6    0s
* 1239  1014              24      -3.1032834   -3.36916  8.57%  23.2    0s
* 1710  1266              17      -3.1226228   -3.35927  7.58%  20.3    0s
* 1750  1266              24      -3.2516123   -3.35927  3.31%  20.2    0s
* 1752  1266              25      -3.2516258   -3.35927  3.31%  20.1    0s
* 1917  1044              25      -3.2554169   -3.26481  0.29%  19.1    0s
* 1919  1044              26      -3.2555021   -3.26481  0.29%  19.1    0s
* 1920  1044              26      -3.2555063   -3.26481  0.29%  19.1    0s
* 2006  1044              20      -3.2580772   -3.26221  0.13%  18.5    0s
* 2008  1044              21      -3.2580837   -3.26221  0.13%  18.5    0s
* 2009  1044              21      -3.2580839   -3.26221  0.13%  18.5    0s
* 2270   585              21      -3.2581561   -3.25816  0.00%  16.6    0s
* 2272   585              22      -3.2581641   -3.25816  0.00%  16.5    0s
* 2273   585              22      -3.2581644   -3.25816  0.00%  16.5    0s

Cutting planes:
  RLT: 83
  BQP: 10
  PSD: 5

Explored 2687 nodes (38062 simplex iterations) in 0.68 seconds
Thread count was 32 (of 72 available processors)

Solution count 10: -3.25816 -3.25816 -3.25808 ... -3.12262
No other solutions better than -3.25816

Optimal solution found (tolerance 1.00e-04)
Best objective -3.258164449589e+00, best bound -3.258164449589e+00, gap 0.0000%

User-callback calls 5658, time in user-callback 0.00 sec



objective value: -3.2581644495885786
objective bound: -3.2581644495885786
x_opt: [0.0, 1.0, 1.0, 1.0, 1.0, 0.0, 0.17535463472289592, 0.0, 0.5827133314901983, 1.0, 0.0, 1.0, 1.0, 1.0, 1.0, 0.6371193914141963, 0.0, 0.0, 0.0, 0.8267902560744619]
GUROBI solution time: 0.6850018501281738




